NAME : KROB99C
TYPE : PDTSP
DIMENSION : 99
EDGE_WEIGHT_TYPE : EUC_2D
NODE_COORD_SECTION
1 3140 1401
2 556 1056
3 3675 1522
4 1182 1853
5 3595 111
6 962 1895
7 2030 1186
8 3507 1851
9 2642 1269
10 3438 901
11 3858 1472
12 2937 1568
13 376 1018
14 839 1355
15 706 1925
16 749 920
17 298 615
18 694 552
19 387 190
20 2801 695
21 3133 1143
22 1517 266
23 1538 224
24 844 520
25 2639 1239
26 3123 217
27 2489 1520
28 3834 1827
29 3417 1808
30 2938 543
31 71 1323
32 3245 1828
33 731 1741
34 2312 1270
35 2426 1851
36 380 478
37 2310 635
38 2830 775
39 3829 513
40 3684 445
41 171 514
42 627 1261
43 1490 1123
44 61 81
45 422 542
46 2698 1221
47 2372 127
48 177 1390
49 3084 748
50 1213 910
51 3 1817
52 1782 995
53 3896 742
54 1829 812
55 1286 550
56 3017 108
57 2132 1432
58 2000 1110
59 3317 1966
60 1729 1498
61 2408 1747
62 3292 152
63 193 1210
64 782 1462
65 2503 352
66 1697 1924
67 3821 147
68 3370 791
69 3162 367
70 3938 516
71 2741 1583
72 2330 741
73 3918 1088
74 1794 1589
75 2929 485
76 3453 1998
77 896 705
78 399 850
79 2614 195
80 2800 653
81 2630 20
82 1090 1652
83 2009 1163
84 3876 1165
85 3084 774
86 1526 1612
87 1612 328
88 1423 1322
89 3058 1276
90 3782 1865
91 347 252
92 3904 1444
93 2191 1579
94 3220 1454
95 468 319
96 3611 1968
97 3114 1629
98 3515 1892
99 3060 155
PICKUP_AND_DELIVERY_SECTION
1 0 0 0 0 0 0
2 0 0 0 0 86 0
3 0 0 0 0 50 0
4 0 0 0 0 0 81
5 0 0 0 0 10 0
6 0 0 0 0 13 0
7 0 0 0 0 47 0
8 0 0 0 0 0 71
9 0 0 0 0 0 23
10 0 0 0 0 0 5
11 0 0 0 0 36 0
12 0 0 0 0 21 0
13 0 0 0 0 0 6
14 0 0 0 0 0 88
15 0 0 0 0 0 66
16 0 0 0 0 0 98
17 0 0 0 0 42 0
18 0 0 0 0 0 51
19 0 0 0 0 70 0
20 0 0 0 0 0 65
21 0 0 0 0 0 12
22 0 0 0 0 73 0
23 0 0 0 0 9 0
24 0 0 0 0 89 0
25 0 0 0 0 87 0
26 0 0 0 0 0 31
27 0 0 0 0 39 0
28 0 0 0 0 0 48
29 0 0 0 0 78 0
30 0 0 0 0 0 63
31 0 0 0 0 26 0
32 0 0 0 0 0 83
33 0 0 0 0 79 0
34 0 0 0 0 0 67
35 0 0 0 0 80 0
36 0 0 0 0 0 11
37 0 0 0 0 82 0
38 0 0 0 0 96 0
39 0 0 0 0 0 27
40 0 0 0 0 52 0
41 0 0 0 0 0 56
42 0 0 0 0 0 17
43 0 0 0 0 0 91
44 0 0 0 0 99 0
45 0 0 0 0 0 97
46 0 0 0 0 95 0
47 0 0 0 0 0 7
48 0 0 0 0 28 0
49 0 0 0 0 72 0
50 0 0 0 0 0 3
51 0 0 0 0 18 0
52 0 0 0 0 0 40
53 0 0 0 0 57 0
54 0 0 0 0 0 60
55 0 0 0 0 0 93
56 0 0 0 0 41 0
57 0 0 0 0 0 53
58 0 0 0 0 0 61
59 0 0 0 0 76 0
60 0 0 0 0 54 0
61 0 0 0 0 58 0
62 0 0 0 0 0 74
63 0 0 0 0 30 0
64 0 0 0 0 0 90
65 0 0 0 0 20 0
66 0 0 0 0 15 0
67 0 0 0 0 34 0
68 0 0 0 0 85 0
69 0 0 0 0 92 0
70 0 0 0 0 0 19
71 0 0 0 0 8 0
72 0 0 0 0 0 49
73 0 0 0 0 0 22
74 0 0 0 0 62 0
75 0 0 0 0 0 77
76 0 0 0 0 0 59
77 0 0 0 0 75 0
78 0 0 0 0 0 29
79 0 0 0 0 0 33
80 0 0 0 0 0 35
81 0 0 0 0 4 0
82 0 0 0 0 0 37
83 0 0 0 0 32 0
84 0 0 0 0 94 0
85 0 0 0 0 0 68
86 0 0 0 0 0 2
87 0 0 0 0 0 25
88 0 0 0 0 14 0
89 0 0 0 0 0 24
90 0 0 0 0 64 0
91 0 0 0 0 43 0
92 0 0 0 0 0 69
93 0 0 0 0 55 0
94 0 0 0 0 0 84
95 0 0 0 0 0 46
96 0 0 0 0 0 38
97 0 0 0 0 45 0
98 0 0 0 0 16 0
99 0 0 0 0 0 44
DEPOT_SECTION
1 
-1
EOF
